!B3LYP EPR-III Autoaux
!PAL4

* xyz 0 2
 C      2.9339689529    -11.5321917189     -9.6394779685
 H      2.9340534302    -12.6606463942     -9.7277763446
 H      3.3913700908    -10.8934687427    -10.3562166470
 H      2.5163743219    -11.1583784506     -8.7015273543
*

%EPRNMR
        GTENSOR   TRUE
        NUCLEI    = ALL H {AISO, ADIP, AORB}
        NUCLEI    = ALL C {AISO, ADIP, AORB}
END

