!B3LYP EPR-III Autoaux
!PAL4

* xyz 0 2
 C    -19.1955419223    -36.6046179711    -15.3523007806
 H    -19.6368577884    -35.7236584836    -15.6956198874
 H    -19.6659132672    -37.5647778906    -15.2584279737
 H    -18.1501585363    -36.5913647240    -15.0779535028
*

%EPRNMR
        GTENSOR   TRUE
        NUCLEI    = ALL H {AISO, ADIP, AORB}
        NUCLEI    = ALL C {AISO, ADIP, AORB}
END

