!B3LYP EPR-III Autoaux
!PAL4

* xyz 0 2
 C    -15.8332932253    -32.8390380562    -14.4886608583
 H    -16.2415952382    -33.6477730413    -14.0363201232
 H    -14.8177243270    -33.1434197162    -14.9099482950
 H    -16.1759268879    -31.7573969026    -14.4590011898
*

%EPRNMR
        GTENSOR   TRUE
        NUCLEI    = ALL H {AISO, ADIP, AORB}
        NUCLEI    = ALL C {AISO, ADIP, AORB}
END

