!B3LYP EPR-III Autoaux
!PAL4

* xyz 0 2
 C    -86.5392845077   -114.4613441284    -31.9196944255
 H    -85.5401649492   -114.1054029896    -31.8585491267
 H    -87.3561275309   -113.7436452590    -31.9050997582
 H    -86.8581997779   -115.3850764684    -32.0177951399
*

%EPRNMR
        GTENSOR   TRUE
        NUCLEI    = ALL H {AISO, ADIP, AORB}
        NUCLEI    = ALL C {AISO, ADIP, AORB}
END

