!B3LYP EPR-III Autoaux
!PAL4

* xyz 0 2
 C    -22.1240836460    -39.9442962334    -16.1030738952
 H    -21.5495767940    -40.7834169913    -15.8709287113
 H    -21.8592406648    -38.8291387647    -16.2531671283
 H    -23.2093873492    -40.1452222213    -16.3251316993
*

%EPRNMR
        GTENSOR   TRUE
        NUCLEI    = ALL H {AISO, ADIP, AORB}
        NUCLEI    = ALL C {AISO, ADIP, AORB}
END

