!B3LYP EPR-III Autoaux
!PAL4

* xyz 0 2
 C    -94.0676862616   -123.9546611336    -33.4880006357
 H    -92.9874913778   -123.6128266496    -33.4199050225
 H    -94.7970084348   -123.1271546250    -33.4748354493
 H    -94.4148038282   -124.9887282201    -33.5807511214
*

%EPRNMR
        GTENSOR   TRUE
        NUCLEI    = ALL H {AISO, ADIP, AORB}
        NUCLEI    = ALL C {AISO, ADIP, AORB}
END

