!B3LYP EPR-III Autoaux
!PAL4

* xyz 0 2
 C    -59.1722960908    -81.4161476592    -25.4754883602
 H    -59.5974329967    -80.4468256628    -25.3771468993
 H    -59.7595183927    -82.3530603492    -25.5575374746
 H    -58.1496965538    -81.6588167527    -25.4562133683
*

%EPRNMR
        GTENSOR   TRUE
        NUCLEI    = ALL H {AISO, ADIP, AORB}
        NUCLEI    = ALL C {AISO, ADIP, AORB}
END

