!B3LYP EPR-III Autoaux
!PAL4

* xyz 0 2
 C    -60.4147886743    -82.8523655117    -25.7795965837
 H    -61.4680300546    -82.7387699961    -25.7564951863
 H    -60.0787813286    -83.8017446833    -25.9092753922
 H    -59.8501836974    -81.9218680431    -25.7039785514
*

%EPRNMR
        GTENSOR   TRUE
        NUCLEI    = ALL H {AISO, ADIP, AORB}
        NUCLEI    = ALL C {AISO, ADIP, AORB}
END

