!B3LYP EPR-III Autoaux
!PAL4

* xyz 0 2
 C    -52.0934391941    -73.5273669566    -23.6871655757
 H    -52.7222656312    -72.6273260245    -23.6098187939
 H    -52.5696527833    -74.4675291622    -23.7675211651
 H    -50.9490584655    -73.5396674763    -23.6353561279
*

%EPRNMR
        GTENSOR   TRUE
        NUCLEI    = ALL H {AISO, ADIP, AORB}
        NUCLEI    = ALL C {AISO, ADIP, AORB}
END

