!B3LYP EPR-III Autoaux
!PAL4

* xyz 0 2
 C    -58.6134322189    -80.8180367157    -25.3390624853
 H    -58.5869005393    -79.7256214304    -25.2623277647
 H    -59.6923261065    -81.1825786186    -25.3741358300
 H    -57.6742727621    -81.3803714428    -25.3619709892
*

%EPRNMR
        GTENSOR   TRUE
        NUCLEI    = ALL H {AISO, ADIP, AORB}
        NUCLEI    = ALL C {AISO, ADIP, AORB}
END

