!B3LYP EPR-III Autoaux
!PAL4

* xyz 0 2
 C    -16.8162416655    -33.9553418779    -14.7458832955
 H    -16.2806455193    -34.7951520823    -14.5098491598
 H    -16.3838083705    -32.9832442299    -14.4722365706
 H    -17.7494867846    -34.0983623754    -15.2767357834
*

%EPRNMR
        GTENSOR   TRUE
        NUCLEI    = ALL H {AISO, ADIP, AORB}
        NUCLEI    = ALL C {AISO, ADIP, AORB}
END

