!B3LYP EPR-III Autoaux
!PAL4

* xyz 0 2
 C    -12.0391024277    -28.5680269859    -13.4961973565
 H    -12.0259357095    -29.6133194426    -13.9399312728
 H    -11.2261389238    -28.3553686415    -12.8975394217
 H    -12.7636019939    -27.9120265318    -13.8264524499
*

%EPRNMR
        GTENSOR   TRUE
        NUCLEI    = ALL H {AISO, ADIP, AORB}
        NUCLEI    = ALL C {AISO, ADIP, AORB}
END

