!B3LYP EPR-III Autoaux
!PAL4

* xyz 0 2
 C    -46.6180297052    -67.4224720105    -22.3164490984
 H    -47.5712390788    -67.8270655361    -22.2657726546
 H    -45.6289966167    -67.9243543122    -22.4524101818
 H    -46.5007818763    -66.4126804370    -22.1712031891
*

%EPRNMR
        GTENSOR   TRUE
        NUCLEI    = ALL H {AISO, ADIP, AORB}
        NUCLEI    = ALL C {AISO, ADIP, AORB}
END

