!B3LYP EPR-III Autoaux
!PAL4

* xyz 0 2
 C    -37.1323300233    -56.8325226544    -19.9247289854
 H    -36.8821733529    -55.7402918634    -19.9094243807
 H    -38.0933771968    -56.9261325845    -19.7478699523
 H    -36.3549665842    -57.5589560895    -20.0314087844
*

%EPRNMR
        GTENSOR   TRUE
        NUCLEI    = ALL H {AISO, ADIP, AORB}
        NUCLEI    = ALL C {AISO, ADIP, AORB}
END

