!B3LYP EPR-III Autoaux
!PAL4

* xyz 0 2
 C    -72.1796471351    -96.8558355294    -28.4999933314
 H    -71.2999223016    -96.2106976241    -28.4440810725
 H    -73.1919623220    -96.4765343107    -28.5061568802
 H    -72.2254460702    -97.9748135015    -28.6043255626
*

%EPRNMR
        GTENSOR   TRUE
        NUCLEI    = ALL H {AISO, ADIP, AORB}
        NUCLEI    = ALL C {AISO, ADIP, AORB}
END

