!B3LYP EPR-III Autoaux
!PAL4

* xyz 0 2
 C      0.4815686203    -14.3533995860    -10.2488254970
 H      0.6206021812    -15.3910653057    -10.1761408953
 H      1.1095439421    -13.5195660536     -9.7168185895
 H     -0.1529064934    -14.0097976940    -11.0630498753
*

%EPRNMR
        GTENSOR   TRUE
        NUCLEI    = ALL H {AISO, ADIP, AORB}
        NUCLEI    = ALL C {AISO, ADIP, AORB}
END

