!B3LYP EPR-III Autoaux
!PAL4

* xyz 0 2
 C     11.3046331887     -2.0582038811     -7.4824850186
 H     11.7803111956     -2.7886772132     -8.1011542289
 H     11.6986164182     -1.8941016171     -6.5174143166
 H     10.6550361941     -1.2968527239     -7.8797494461
*

%EPRNMR
        GTENSOR   TRUE
        NUCLEI    = ALL H {AISO, ADIP, AORB}
        NUCLEI    = ALL C {AISO, ADIP, AORB}
END

