!B3LYP EPR-III Autoaux
!PAL4

* xyz 0 2
 C    -28.9701233372    -47.6542341113    -17.8636699356
 H    -27.9405940996    -47.9769910975    -17.7390175581
 H    -29.4448212283    -46.6436683291    -17.7520941825
 H    -29.6886107167    -48.4292044902    -18.1229174808
*

%EPRNMR
        GTENSOR   TRUE
        NUCLEI    = ALL H {AISO, ADIP, AORB}
        NUCLEI    = ALL C {AISO, ADIP, AORB}
END

