!B3LYP EPR-III Autoaux
!PAL4

* xyz 0 2
 C      1.9264860574    -12.7100611544     -9.9022026298
 H      1.8767652153    -12.1680993668     -8.9241926422
 H      0.9620411499    -12.6014771084    -10.4846612057
 H      2.5999219916    -13.5480323567    -10.2142620936
*

%EPRNMR
        GTENSOR   TRUE
        NUCLEI    = ALL H {AISO, ADIP, AORB}
        NUCLEI    = ALL C {AISO, ADIP, AORB}
END

