!B3LYP EPR-III Autoaux
!PAL4

* xyz 0 2
 C    -23.2662578379    -41.2027842840    -16.4043187647
 H    -22.2107893393    -40.8994694430    -16.2591286011
 H    -24.0545530176    -40.4950146717    -16.1298604493
 H    -23.4111991812    -42.2070563410    -16.7953064922
*

%EPRNMR
        GTENSOR   TRUE
        NUCLEI    = ALL H {AISO, ADIP, AORB}
        NUCLEI    = ALL C {AISO, ADIP, AORB}
END

